
Gurobi 10.0.3 (linux64, gurobi_cl) logging started Thu Nov  9 11:54:37 2023

Set parameter Username
Set parameter TimeLimit to value 3600
Set parameter LogFile to value "RCPSP_1328.log"
Set parameter Threads to value 32
Academic license - for non-commercial use only - expires 2024-11-06
Using license file /home/jrivera6/gurobi-licenses/v1003/compute-0-36/gurobi.lic

Gurobi Optimizer version 10.0.3 build v10.0.3rc0 (linux64)
Copyright (c) 2023, Gurobi Optimization, LLC

Read MPS format model from file RCPSP_1328.mps
Reading time = 0.05 seconds
RCPSP_1328: 42975 rows, 17020 columns, 142890 nonzeros

CPU model: Intel(R) Xeon(R) Gold 6130 CPU @ 2.10GHz, instruction set [SSE2|AVX|AVX2|AVX512]
Thread count: 32 physical cores, 32 logical processors, using up to 32 threads

Optimize a model with 42975 rows, 17020 columns and 142890 nonzeros
Model fingerprint: 0x11664298
Variable types: 92 continuous, 16928 integer (16928 binary)
Coefficient statistics:
  Matrix range     [1e+00, 5e+02]
  Objective range  [1e+00, 1e+00]
  Bounds range     [1e+00, 1e+00]
  RHS range        [1e+00, 5e+02]
Presolve removed 9293 rows and 2174 columns (presolve time = 5s) ...
Presolve removed 14283 rows and 4150 columns
Presolve time: 9.07s
Presolved: 28692 rows, 12870 columns, 98708 nonzeros
Variable types: 91 continuous, 12779 integer (12779 binary)

Root simplex log...

Iteration    Objective       Primal Inf.    Dual Inf.      Time
       0    8.9000000e+01   9.709950e+04   0.000000e+00      9s
    4250    8.9000000e+01   0.000000e+00   0.000000e+00     10s

Root relaxation: objective 8.900000e+01, 4250 iterations, 0.21 seconds (0.07 work units)
Total elapsed time = 10.31s

    Nodes    |    Current Node    |     Objective Bounds      |     Work
 Expl Unexpl |  Obj  Depth IntInf | Incumbent    BestBd   Gap | It/Node Time

     0     0   89.00000    0  288          -   89.00000      -     -   13s
     0     0   89.00000    0  278          -   89.00000      -     -   13s
     0     0   89.00000    0  840          -   89.00000      -     -   34s
     0     0   89.00000    0  924          -   89.00000      -     -   38s
     0     0   89.00000    0  783          -   89.00000      -     -   39s
     0     0   89.00000    0  773          -   89.00000      -     -   39s
     0     0   89.00000    0  925          -   89.00000      -     -   40s
     0     0   89.00000    0  923          -   89.00000      -     -   40s
     0     0   89.00000    0  400          -   89.00000      -     -   53s
     0     0   89.00000    0  640          -   89.00000      -     -   54s
     0     0   89.10401    0  505          -   89.10401      -     -   61s
     0     0   89.10401    0  435          -   89.10401      -     -   61s
     0     0   89.11706    0  716          -   89.11706      -     -   63s
     0     0   89.11706    0  668          -   89.11706      -     -   63s
     0     0   91.09986    0  748          -   91.09986      -     -   66s
     0     0   91.30752    0  803          -   91.30752      -     -   67s
     0     0   91.30752    0  795          -   91.30752      -     -   67s
     0     0   91.30752    0  779          -   91.30752      -     -   67s
     0     0   91.30752    0  616          -   91.30752      -     -   68s
     0     0   91.30752    0  616          -   91.30752      -     -   69s
     0     0   91.30752    0  616          -   91.30752      -     -   69s
     0     0   91.30752    0  614          -   91.30752      -     -   69s
     0     0   91.30752    0  692          -   91.30752      -     -   74s
     0     0   91.30752    0  647          -   91.30752      -     -   75s
     0     0   91.30752    0  631          -   91.30752      -     -   75s
     0     0   91.30752    0  671          -   91.30752      -     -   82s
     0     0   91.30752    0  668          -   91.30752      -     -   82s
     0     0   91.30752    0  810          -   91.30752      -     -   86s
     0     0   91.30752    0  717          -   91.30752      -     -   87s
     0     0   91.30752    0  684          -   91.30752      -     -   88s
     0     0   91.30752    0  727          -   91.30752      -     -   89s
     0     0   91.30752    0  751          -   91.30752      -     -   90s
     0     0   91.30752    0  748          -   91.30752      -     -   90s
     0     0   91.30752    0  446          -   91.30752      -     -   97s
     0     0   91.30752    0  784          -   91.30752      -     -   99s
     0     0   91.30752    0  774          -   91.30752      -     -   99s
     0     0   91.30752    0  309          -   91.30752      -     -  107s
     0     0   91.30752    0  555          -   91.30752      -     -  111s
     0     0   91.30752    0  304          -   91.30752      -     -  121s
     0     0   91.30752    0  748          -   91.30752      -     -  125s
     0     0   91.30752    0  744          -   91.30752      -     -  125s
     0     0   91.30752    0  255          -   91.30752      -     -  130s
     0     0   91.30752    0  711          -   91.30752      -     -  131s
     0     0   91.30752    0  248          -   91.30752      -     -  141s
     0     0   91.30752    0  220          -   91.30752      -     -  152s
     0     2   91.30752    0  220          -   91.30752      -     -  172s
     1     3   91.65800    1  215          -   91.65800      -  1712  179s
     3     6   93.28513    2  232          -   93.28513      -   874  183s
     6    10   94.77778    3  324          -   93.28513      -   513  190s
    12    17   94.77778    4  517          -   93.99715      -   362  202s
    22    32   94.77778    5  553          -   93.99715      -   587  218s
    39    62   94.77778    6  562          -   93.99715      -   744  297s
    71    92   94.77778    7  547          -   93.99715      -   811  307s
   103   122  103.77778    8  562          -   93.99715      -   686  315s
   135   147  103.77778    9  562          -   93.99715      -   576  320s
   167   176  103.77778   10  560          -   93.99715      -   483  327s
   204   194  105.77778   11  555          -   93.99715      -   420  332s
   242   221  103.77778   11  529          -   93.99715      -   366  337s
   282   259  103.77778   12  529          -   93.99715      -   317  343s
   327   298  103.77778   13  521          -   93.99715      -   281  349s
   372   344  103.77778   14  519          -   93.99715      -   253  356s
   422   388  103.77778   15  515          -   93.99715      -   230  361s
   473   441  103.77778   16  517          -   93.99715      -   209  366s
   527   495  103.77778   18  525          -   93.99715      -   192  370s
   640   604  103.77778   20  522          -   93.99715      -   163  380s
   763   734  103.77778   22  498          -   93.99715      -   142  390s
   836   804  103.77778   24  499          -   93.99715      -   133  396s
   910   879  103.77778   25  492          -   93.99715      -   123  401s
   986   969  103.77778   26  517          -   93.99715      -   117  406s
  1080  1079  103.77778   28  512          -   93.99715      -   110  414s
  1205  1213  106.77778   31  546          -   93.99715      -   102  428s
  1349  1380  117.77778   35  517          -   93.99715      -  96.4  434s
  1525  1573  106.77778   35  546          -   93.99715      -  87.9  441s
  1734  1666  106.77778   38  589          -   93.99715      -  81.2  448s
  1832  1893  106.77778   39  585          -   93.99715      -  83.4  456s
  2070  2120  106.77778   47  541          -   93.99715      -  77.6  479s
  2305  2279 infeasible   51               -   93.99715      -  74.1  488s
  2480  2470  108.77778   51  607          -   93.99715      -  74.0  494s
  2689  2623  108.77778   52  601          -   93.99715      -  72.5  509s
  2869  2757  108.77778   65  605          -   93.99715      -  73.2  519s
  3009  2840  108.77778   66  567          -   93.99715      -  74.9  728s
  3097  3126  108.77778   69  608          -   93.99715      -  75.0  778s
  3417  3346  108.77778   73  568          -   93.99715      -  72.3  790s
  3669  3639  108.77778   76  567          -   93.99715      -  71.8  818s
  3996  3817  108.77778   85  556          -   93.99715      -  70.9  857s
  4194  4027  108.77778   89  572          -   93.99715      -  72.9  892s
  4442  4268  108.77778   90  572          -   93.99715      -  73.6 1106s
  4744  4489  108.77778   94  601          -   93.99715      -  73.1 1194s
  5026  4738  108.77778   95  595          -   93.99715      -  74.0 1306s
  5314  4990  108.77778  102  606          -   93.99715      -  74.6 1403s
  5614  5231  108.77778  104  609          -   93.99715      -  75.2 1457s
  5920  5572  108.77778  105  602          -   93.99715      -  75.8 1516s
  6349  5835  108.77778  107  678          -   93.99715      -  75.9 1805s
  6694  6056  108.77778  108  680          -   93.99715      -  76.7 2567s
  6856  6056 infeasible   75               -   93.99715      -  78.1 2574s
  6976  6057  117.00000  174  220          -   93.99715      -  78.2 3720s

Explored 6976 nodes (650796 simplex iterations) in 3727.46 seconds (64.11 work units)
Thread count was 32 (of 32 available processors)

Solution count 0

Time limit reached
Best objective -, best bound 9.399715085024e+01, gap -

Unable to retrieve attribute 'X'

